p cnf 434 1536
c weights 1.0 1.0 2.718281828459045 0.36787944117144233 2.718281828459045 0.36787944117144233 2.718281828459045 0.36787944117144233 2.718281828459045 0.36787944117144233 2.718281828459045 0.36787944117144233 2.718281828459045 0.36787944117144233 2.718281828459045 0.36787944117144233 2.718281828459045 0.36787944117144233 2.718281828459045 0.36787944117144233 2.718281828459045 0.36787944117144233 2.718281828459045 0.36787944117144233 2.718281828459045 0.36787944117144233 2.718281828459045 0.36787944117144233 2.718281828459045 0.36787944117144233 2.718281828459045 0.36787944117144233 2.718281828459045 0.36787944117144233 2.718281828459045 0.36787944117144233 2.718281828459045 0.36787944117144233 2.718281828459045 0.36787944117144233 1.0 1.0 2.718281828459045 0.36787944117144233 2.718281828459045 0.36787944117144233 2.718281828459045 0.36787944117144233 2.718281828459045 0.36787944117144233 2.718281828459045 0.36787944117144233 2.718281828459045 0.36787944117144233 2.718281828459045 0.36787944117144233 2.718281828459045 0.36787944117144233 2.718281828459045 0.36787944117144233 2.718281828459045 0.36787944117144233 2.718281828459045 0.36787944117144233 2.718281828459045 0.36787944117144233 2.718281828459045 0.36787944117144233 1.0 1.0 2.718281828459045 0.36787944117144233 2.718281828459045 0.36787944117144233 2.718281828459045 0.36787944117144233 2.718281828459045 0.36787944117144233 2.718281828459045 0.36787944117144233 2.718281828459045 0.36787944117144233 2.718281828459045 0.36787944117144233 2.718281828459045 0.36787944117144233 2.718281828459045 0.36787944117144233 2.718281828459045 0.36787944117144233 2.718281828459045 0.36787944117144233 2.718281828459045 0.36787944117144233 2.718281828459045 0.36787944117144233 2.718281828459045 0.36787944117144233 2.718281828459045 0.36787944117144233 1.0 1.0 2.718281828459045 0.36787944117144233 2.718281828459045 0.36787944117144233 2.718281828459045 0.36787944117144233 2.718281828459045 0.36787944117144233 2.718281828459045 0.36787944117144233 2.718281828459045 0.36787944117144233 2.718281828459045 0.36787944117144233 2.718281828459045 0.36787944117144233 2.718281828459045 0.36787944117144233 2.718281828459045 0.36787944117144233 2.718281828459045 0.36787944117144233 2.718281828459045 0.36787944117144233 2.718281828459045 0.36787944117144233 2.718281828459045 0.36787944117144233 1.0 1.0 2.718281828459045 0.36787944117144233 2.718281828459045 0.36787944117144233 2.718281828459045 0.36787944117144233 2.718281828459045 0.36787944117144233 2.718281828459045 0.36787944117144233 2.718281828459045 0.36787944117144233 2.718281828459045 0.36787944117144233 2.718281828459045 0.36787944117144233 2.718281828459045 0.36787944117144233 2.718281828459045 0.36787944117144233 2.718281828459045 0.36787944117144233 2.718281828459045 0.36787944117144233 2.718281828459045 0.36787944117144233 2.718281828459045 0.36787944117144233 1.0 1.0 2.718281828459045 0.36787944117144233 2.718281828459045 0.36787944117144233 2.718281828459045 0.36787944117144233 2.718281828459045 0.36787944117144233 2.718281828459045 0.36787944117144233 2.718281828459045 0.36787944117144233 2.718281828459045 0.36787944117144233 2.718281828459045 0.36787944117144233 2.718281828459045 0.36787944117144233 2.718281828459045 0.36787944117144233 2.718281828459045 0.36787944117144233 2.718281828459045 0.36787944117144233 2.718281828459045 0.36787944117144233 1.0 1.0 2.718281828459045 0.36787944117144233 2.718281828459045 0.36787944117144233 2.718281828459045 0.36787944117144233 2.718281828459045 0.36787944117144233 2.718281828459045 0.36787944117144233 2.718281828459045 0.36787944117144233 1.0 1.0 2.718281828459045 0.36787944117144233 2.718281828459045 0.36787944117144233 2.718281828459045 0.36787944117144233 2.718281828459045 0.36787944117144233 2.718281828459045 0.36787944117144233 2.718281828459045 0.36787944117144233 2.718281828459045 0.36787944117144233 2.718281828459045 0.36787944117144233 2.718281828459045 0.36787944117144233 2.718281828459045 0.36787944117144233 2.718281828459045 0.36787944117144233 2.718281828459045 0.36787944117144233 2.718281828459045 0.36787944117144233 2.718281828459045 0.36787944117144233 2.718281828459045 0.36787944117144233 2.718281828459045 0.36787944117144233 2.718281828459045 0.36787944117144233 2.718281828459045 0.36787944117144233 2.718281828459045 0.36787944117144233 1.0 1.0 2.718281828459045 0.36787944117144233 2.718281828459045 0.36787944117144233 2.718281828459045 0.36787944117144233 2.718281828459045 0.36787944117144233 2.718281828459045 0.36787944117144233 2.718281828459045 0.36787944117144233 2.718281828459045 0.36787944117144233 2.718281828459045 0.36787944117144233 2.718281828459045 0.36787944117144233 2.718281828459045 0.36787944117144233 2.718281828459045 0.36787944117144233 2.718281828459045 0.36787944117144233 2.718281828459045 0.36787944117144233 2.718281828459045 0.36787944117144233 2.718281828459045 0.36787944117144233 2.718281828459045 0.36787944117144233 2.718281828459045 0.36787944117144233 2.718281828459045 0.36787944117144233 1.0 1.0 2.718281828459045 0.36787944117144233 2.718281828459045 0.36787944117144233 2.718281828459045 0.36787944117144233 2.718281828459045 0.36787944117144233 2.718281828459045 0.36787944117144233 2.718281828459045 0.36787944117144233 2.718281828459045 0.36787944117144233 2.718281828459045 0.36787944117144233 2.718281828459045 0.36787944117144233 2.718281828459045 0.36787944117144233 2.718281828459045 0.36787944117144233 1.0 1.0 2.718281828459045 0.36787944117144233 2.718281828459045 0.36787944117144233 2.718281828459045 0.36787944117144233 2.718281828459045 0.36787944117144233 2.718281828459045 0.36787944117144233 2.718281828459045 0.36787944117144233 2.718281828459045 0.36787944117144233 2.718281828459045 0.36787944117144233 2.718281828459045 0.36787944117144233 2.718281828459045 0.36787944117144233 1.0 1.0 2.718281828459045 0.36787944117144233 2.718281828459045 0.36787944117144233 2.718281828459045 0.36787944117144233 2.718281828459045 0.36787944117144233 2.718281828459045 0.36787944117144233 2.718281828459045 0.36787944117144233 2.718281828459045 0.36787944117144233 2.718281828459045 0.36787944117144233 2.718281828459045 0.36787944117144233 2.718281828459045 0.36787944117144233 2.718281828459045 0.36787944117144233 2.718281828459045 0.36787944117144233 1.0 1.0 2.718281828459045 0.36787944117144233 2.718281828459045 0.36787944117144233 2.718281828459045 0.36787944117144233 2.718281828459045 0.36787944117144233 2.718281828459045 0.36787944117144233 2.718281828459045 0.36787944117144233 2.718281828459045 0.36787944117144233 2.718281828459045 0.36787944117144233 2.718281828459045 0.36787944117144233 2.718281828459045 0.36787944117144233 2.718281828459045 0.36787944117144233 2.718281828459045 0.36787944117144233 2.718281828459045 0.36787944117144233 2.718281828459045 0.36787944117144233 1.0 1.0 2.718281828459045 0.36787944117144233 2.718281828459045 0.36787944117144233 2.718281828459045 0.36787944117144233 2.718281828459045 0.36787944117144233 2.718281828459045 0.36787944117144233 1.0 1.0 2.718281828459045 0.36787944117144233 2.718281828459045 0.36787944117144233 2.718281828459045 0.36787944117144233 2.718281828459045 0.36787944117144233 2.718281828459045 0.36787944117144233 2.718281828459045 0.36787944117144233 2.718281828459045 0.36787944117144233 2.718281828459045 0.36787944117144233 2.718281828459045 0.36787944117144233 2.718281828459045 0.36787944117144233 2.718281828459045 0.36787944117144233 2.718281828459045 0.36787944117144233 2.718281828459045 0.36787944117144233 1.0 1.0 2.718281828459045 0.36787944117144233 2.718281828459045 0.36787944117144233 2.718281828459045 0.36787944117144233 2.718281828459045 0.36787944117144233 2.718281828459045 0.36787944117144233 2.718281828459045 0.36787944117144233 2.718281828459045 0.36787944117144233 2.718281828459045 0.36787944117144233 2.718281828459045 0.36787944117144233 1.0 1.0 2.718281828459045 0.36787944117144233 2.718281828459045 0.36787944117144233 2.718281828459045 0.36787944117144233 2.718281828459045 0.36787944117144233 2.718281828459045 0.36787944117144233 2.718281828459045 0.36787944117144233 2.718281828459045 0.36787944117144233 2.718281828459045 0.36787944117144233 1.0 1.0 2.718281828459045 0.36787944117144233 2.718281828459045 0.36787944117144233 2.718281828459045 0.36787944117144233 2.718281828459045 0.36787944117144233 2.718281828459045 0.36787944117144233 2.718281828459045 0.36787944117144233 2.718281828459045 0.36787944117144233 2.718281828459045 0.36787944117144233 2.718281828459045 0.36787944117144233 2.718281828459045 0.36787944117144233 2.718281828459045 0.36787944117144233 1.0 1.0 2.718281828459045 0.36787944117144233 2.718281828459045 0.36787944117144233 2.718281828459045 0.36787944117144233 2.718281828459045 0.36787944117144233 2.718281828459045 0.36787944117144233 2.718281828459045 0.36787944117144233 2.718281828459045 0.36787944117144233 2.718281828459045 0.36787944117144233 2.718281828459045 0.36787944117144233 2.718281828459045 0.36787944117144233 2.718281828459045 0.36787944117144233 2.718281828459045 0.36787944117144233 1.0 1.0 2.718281828459045 0.36787944117144233 2.718281828459045 0.36787944117144233 2.718281828459045 0.36787944117144233 2.718281828459045 0.36787944117144233 2.718281828459045 0.36787944117144233 2.718281828459045 0.36787944117144233 2.718281828459045 0.36787944117144233 2.718281828459045 0.36787944117144233 2.718281828459045 0.36787944117144233 2.718281828459045 0.36787944117144233 2.718281828459045 0.36787944117144233 1.0 1.0 2.718281828459045 0.36787944117144233 2.718281828459045 0.36787944117144233 2.718281828459045 0.36787944117144233 2.718281828459045 0.36787944117144233 2.718281828459045 0.36787944117144233 2.718281828459045 0.36787944117144233 2.718281828459045 0.36787944117144233 2.718281828459045 0.36787944117144233 2.718281828459045 0.36787944117144233 1.0 1.0 2.718281828459045 0.36787944117144233 2.718281828459045 0.36787944117144233 2.718281828459045 0.36787944117144233 2.718281828459045 0.36787944117144233 2.718281828459045 0.36787944117144233 2.718281828459045 0.36787944117144233 2.718281828459045 0.36787944117144233 1.0 1.0 2.718281828459045 0.36787944117144233 2.718281828459045 0.36787944117144233 2.718281828459045 0.36787944117144233 2.718281828459045 0.36787944117144233 2.718281828459045 0.36787944117144233 2.718281828459045 0.36787944117144233 1.0 1.0 2.718281828459045 0.36787944117144233 2.718281828459045 0.36787944117144233 2.718281828459045 0.36787944117144233 2.718281828459045 0.36787944117144233 2.718281828459045 0.36787944117144233 2.718281828459045 0.36787944117144233 2.718281828459045 0.36787944117144233 1.0 1.0 2.718281828459045 0.36787944117144233 2.718281828459045 0.36787944117144233 2.718281828459045 0.36787944117144233 2.718281828459045 0.36787944117144233 2.718281828459045 0.36787944117144233 2.718281828459045 0.36787944117144233 2.718281828459045 0.36787944117144233 2.718281828459045 0.36787944117144233 2.718281828459045 0.36787944117144233 1.0 1.0 2.718281828459045 0.36787944117144233 2.718281828459045 0.36787944117144233 2.718281828459045 0.36787944117144233 2.718281828459045 0.36787944117144233 2.718281828459045 0.36787944117144233 1.0 1.0 2.718281828459045 0.36787944117144233 2.718281828459045 0.36787944117144233 2.718281828459045 0.36787944117144233 2.718281828459045 0.36787944117144233 2.718281828459045 0.36787944117144233 2.718281828459045 0.36787944117144233 2.718281828459045 0.36787944117144233 2.718281828459045 0.36787944117144233 2.718281828459045 0.36787944117144233 2.718281828459045 0.36787944117144233 1.0 1.0 2.718281828459045 0.36787944117144233 2.718281828459045 0.36787944117144233 2.718281828459045 0.36787944117144233 2.718281828459045 0.36787944117144233 2.718281828459045 0.36787944117144233 2.718281828459045 0.36787944117144233 1.0 1.0 2.718281828459045 0.36787944117144233 2.718281828459045 0.36787944117144233 2.718281828459045 0.36787944117144233 2.718281828459045 0.36787944117144233 1.0 1.0 2.718281828459045 0.36787944117144233 2.718281828459045 0.36787944117144233 2.718281828459045 0.36787944117144233 2.718281828459045 0.36787944117144233 2.718281828459045 0.36787944117144233 1.0 1.0 2.718281828459045 0.36787944117144233 2.718281828459045 0.36787944117144233 2.718281828459045 0.36787944117144233 2.718281828459045 0.36787944117144233 2.718281828459045 0.36787944117144233 2.718281828459045 0.36787944117144233 2.718281828459045 0.36787944117144233 2.718281828459045 0.36787944117144233 2.718281828459045 0.36787944117144233 1.0 1.0 2.718281828459045 0.36787944117144233 2.718281828459045 0.36787944117144233 2.718281828459045 0.36787944117144233 2.718281828459045 0.36787944117144233 2.718281828459045 0.36787944117144233 2.718281828459045 0.36787944117144233 2.718281828459045 0.36787944117144233 2.718281828459045 0.36787944117144233 2.718281828459045 0.36787944117144233 2.718281828459045 0.36787944117144233 2.718281828459045 0.36787944117144233 2.718281828459045 0.36787944117144233 1.0 1.0 2.718281828459045 0.36787944117144233 2.718281828459045 0.36787944117144233 2.718281828459045 0.36787944117144233 2.718281828459045 0.36787944117144233 2.718281828459045 0.36787944117144233 2.718281828459045 0.36787944117144233 1.0 1.0 2.718281828459045 0.36787944117144233 2.718281828459045 0.36787944117144233 2.718281828459045 0.36787944117144233 2.718281828459045 0.36787944117144233 1.0 1.0 2.718281828459045 0.36787944117144233 2.718281828459045 0.36787944117144233 2.718281828459045 0.36787944117144233 2.718281828459045 0.36787944117144233 2.718281828459045 0.36787944117144233 2.718281828459045 0.36787944117144233 1.0 1.0 2.718281828459045 0.36787944117144233 2.718281828459045 0.36787944117144233 2.718281828459045 0.36787944117144233 2.718281828459045 0.36787944117144233 2.718281828459045 0.36787944117144233 1.0 1.0 2.718281828459045 0.36787944117144233 2.718281828459045 0.36787944117144233 1.0 1.0 2.718281828459045 0.36787944117144233 2.718281828459045 0.36787944117144233 2.718281828459045 0.36787944117144233 2.718281828459045 0.36787944117144233 1.0 1.0 2.718281828459045 0.36787944117144233 2.718281828459045 0.36787944117144233 2.718281828459045 0.36787944117144233 2.718281828459045 0.36787944117144233 1.0 1.0 2.718281828459045 0.36787944117144233 2.718281828459045 0.36787944117144233 2.718281828459045 0.36787944117144233 2.718281828459045 0.36787944117144233 1.0 1.0 2.718281828459045 0.36787944117144233 2.718281828459045 0.36787944117144233 1.0 1.0 2.718281828459045 0.36787944117144233 1.0 1.0 2.718281828459045 0.36787944117144233 2.718281828459045 0.36787944117144233 1.0 1.0 2.718281828459045 0.36787944117144233 1.0 1.0 2.718281828459045 0.36787944117144233 2.718281828459045 0.36787944117144233 1.0 1.0 2.718281828459045 0.36787944117144233 2.718281828459045 0.36787944117144233 1.0 1.0 2.718281828459045 0.36787944117144233 1.0 1.0 2.718281828459045 0.36787944117144233 1.0 1.0 2.718281828459045 0.36787944117144233 1.0 1.0
2 1 21 0
2 -1 -21 0
-2 1 -21 0
-2 -1 21 0
3 1 51 0
3 -1 -51 0
-3 1 -51 0
-3 -1 51 0
4 1 102 0
4 -1 -102 0
-4 1 -102 0
-4 -1 102 0
5 1 153 0
5 -1 -153 0
-5 1 -153 0
-5 -1 153 0
6 1 198 0
6 -1 -198 0
-6 1 -198 0
-6 -1 198 0
7 1 222 0
7 -1 -222 0
-7 1 -222 0
-7 -1 222 0
8 1 256 0
8 -1 -256 0
-8 1 -256 0
-8 -1 256 0
9 1 268 0
9 -1 -268 0
-9 1 -268 0
-9 -1 268 0
10 1 286 0
10 -1 -286 0
-10 1 -286 0
-10 -1 286 0
11 1 293 0
11 -1 -293 0
-11 1 -293 0
-11 -1 293 0
12 1 317 0
12 -1 -317 0
-12 1 -317 0
-12 -1 317 0
13 1 356 0
13 -1 -356 0
-13 1 -356 0
-13 -1 356 0
14 1 369 0
14 -1 -369 0
-14 1 -369 0
-14 -1 369 0
15 1 388 0
15 -1 -388 0
-15 1 -388 0
-15 -1 388 0
16 1 407 0
16 -1 -407 0
-16 1 -407 0
-16 -1 407 0
17 1 412 0
17 -1 -412 0
-17 1 -412 0
-17 -1 412 0
18 1 425 0
18 -1 -425 0
-18 1 -425 0
-18 -1 425 0
19 1 428 0
19 -1 -428 0
-19 1 -428 0
-19 -1 428 0
20 1 432 0
20 -1 -432 0
-20 1 -432 0
-20 -1 432 0
22 21 81 0
22 -21 -81 0
-22 21 -81 0
-22 -21 81 0
23 21 122 0
23 -21 -122 0
-23 21 -122 0
-23 -21 122 0
24 21 212 0
24 -21 -212 0
-24 21 -212 0
-24 -21 212 0
25 21 243 0
25 -21 -243 0
-25 21 -243 0
-25 -21 243 0
26 21 268 0
26 -21 -268 0
-26 21 -268 0
-26 -21 268 0
27 21 278 0
27 -21 -278 0
-27 21 -278 0
-27 -21 278 0
28 21 286 0
28 -21 -286 0
-28 21 -286 0
-28 -21 286 0
29 21 328 0
29 -21 -328 0
-29 21 -328 0
-29 -21 328 0
30 21 394 0
30 -21 -394 0
-30 21 -394 0
-30 -21 394 0
31 21 402 0
31 -21 -402 0
-31 21 -402 0
-31 -21 402 0
32 21 407 0
32 -21 -407 0
-32 21 -407 0
-32 -21 407 0
33 21 420 0
33 -21 -420 0
-33 21 -420 0
-33 -21 420 0
34 21 425 0
34 -21 -425 0
-34 21 -425 0
-34 -21 425 0
36 35 51 0
36 -35 -51 0
-36 35 -51 0
-36 -35 51 0
37 35 66 0
37 -35 -66 0
-37 35 -66 0
-37 -35 66 0
38 35 122 0
38 -35 -122 0
-38 35 -122 0
-38 -35 122 0
39 35 141 0
39 -35 -141 0
-39 35 -141 0
-39 -35 141 0
40 35 153 0
40 -35 -153 0
-40 35 -153 0
-40 -35 153 0
41 35 164 0
41 -35 -164 0
-41 35 -164 0
-41 -35 164 0
42 35 256 0
42 -35 -256 0
-42 35 -256 0
-42 -35 256 0
43 35 293 0
43 -35 -293 0
-43 35 -293 0
-43 -35 293 0
44 35 301 0
44 -35 -301 0
-44 35 -301 0
-44 -35 301 0
45 35 335 0
45 -35 -335 0
-45 35 -335 0
-45 -35 335 0
46 35 376 0
46 -35 -376 0
-46 35 -376 0
-46 -35 376 0
47 35 402 0
47 -35 -402 0
-47 35 -402 0
-47 -35 402 0
48 35 412 0
48 -35 -412 0
-48 35 -412 0
-48 -35 412 0
49 35 428 0
49 -35 -428 0
-49 35 -428 0
-49 -35 428 0
50 35 432 0
50 -35 -432 0
-50 35 -432 0
-50 -35 432 0
52 51 66 0
52 -51 -66 0
-52 51 -66 0
-52 -51 66 0
53 51 95 0
53 -51 -95 0
-53 51 -95 0
-53 -51 95 0
54 51 122 0
54 -51 -122 0
-54 51 -122 0
-54 -51 122 0
55 51 141 0
55 -51 -141 0
-55 51 -141 0
-55 -51 141 0
56 51 153 0
56 -51 -153 0
-56 51 -153 0
-56 -51 153 0
57 51 222 0
57 -51 -222 0
-57 51 -222 0
-57 -51 222 0
58 51 256 0
58 -51 -256 0
-58 51 -256 0
-58 -51 256 0
59 51 268 0
59 -51 -268 0
-59 51 -268 0
-59 -51 268 0
60 51 369 0
60 -51 -369 0
-60 51 -369 0
-60 -51 369 0
61 51 376 0
61 -51 -376 0
-61 51 -376 0
-61 -51 376 0
62 51 381 0
62 -51 -381 0
-62 51 -381 0
-62 -51 381 0
63 51 402 0
63 -51 -402 0
-63 51 -402 0
-63 -51 402 0
64 51 422 0
64 -51 -422 0
-64 51 -422 0
-64 -51 422 0
65 51 425 0
65 -51 -425 0
-65 51 -425 0
-65 -51 425 0
67 66 81 0
67 -66 -81 0
-67 66 -81 0
-67 -66 81 0
68 66 95 0
68 -66 -95 0
-68 66 -95 0
-68 -66 95 0
69 66 102 0
69 -66 -102 0
-69 66 -102 0
-69 -66 102 0
70 66 141 0
70 -66 -141 0
-70 66 -141 0
-70 -66 141 0
71 66 212 0
71 -66 -212 0
-71 66 -212 0
-71 -66 212 0
72 66 268 0
72 -66 -268 0
-72 66 -268 0
-72 -66 268 0
73 66 286 0
73 -66 -286 0
-73 66 -286 0
-73 -66 286 0
74 66 301 0
74 -66 -301 0
-74 66 -301 0
-74 -66 301 0
75 66 369 0
75 -66 -369 0
-75 66 -369 0
-75 -66 369 0
76 66 376 0
76 -66 -376 0
-76 66 -376 0
-76 -66 376 0
77 66 415 0
77 -66 -415 0
-77 66 -415 0
-77 -66 415 0
78 66 417 0
78 -66 -417 0
-78 66 -417 0
-78 -66 417 0
79 66 420 0
79 -66 -420 0
-79 66 -420 0
-79 -66 420 0
80 66 425 0
80 -66 -425 0
-80 66 -425 0
-80 -66 425 0
82 81 192 0
82 -81 -192 0
-82 81 -192 0
-82 -81 192 0
83 81 198 0
83 -81 -198 0
-83 81 -198 0
-83 -81 198 0
84 81 268 0
84 -81 -268 0
-84 81 -268 0
-84 -81 268 0
85 81 293 0
85 -81 -293 0
-85 81 -293 0
-85 -81 293 0
86 81 311 0
86 -81 -311 0
-86 81 -311 0
-86 -81 311 0
87 81 328 0
87 -81 -328 0
-87 81 -328 0
-87 -81 328 0
88 81 356 0
88 -81 -356 0
-88 81 -356 0
-88 -81 356 0
89 81 369 0
89 -81 -369 0
-89 81 -369 0
-89 -81 369 0
90 81 402 0
90 -81 -402 0
-90 81 -402 0
-90 -81 402 0
91 81 412 0
91 -81 -412 0
-91 81 -412 0
-91 -81 412 0
92 81 430 0
92 -81 -430 0
-92 81 -430 0
-92 -81 430 0
93 81 432 0
93 -81 -432 0
-93 81 -432 0
-93 -81 432 0
94 81 434 0
94 -81 -434 0
-94 81 -434 0
-94 -81 434 0
96 95 141 0
96 -95 -141 0
-96 95 -141 0
-96 -95 141 0
97 95 222 0
97 -95 -222 0
-97 95 -222 0
-97 -95 222 0
98 95 328 0
98 -95 -328 0
-98 95 -328 0
-98 -95 328 0
99 95 381 0
99 -95 -381 0
-99 95 -381 0
-99 -95 381 0
100 95 417 0
100 -95 -417 0
-100 95 -417 0
-100 -95 417 0
101 95 428 0
101 -95 -428 0
-101 95 -428 0
-101 -95 428 0
103 102 141 0
103 -102 -141 0
-103 102 -141 0
-103 -102 141 0
104 102 177 0
104 -102 -177 0
-104 102 -177 0
-104 -102 177 0
105 102 192 0
105 -102 -192 0
-105 102 -192 0
-105 -102 192 0
106 102 198 0
106 -102 -198 0
-106 102 -198 0
-106 -102 198 0
107 102 212 0
107 -102 -212 0
-107 102 -212 0
-107 -102 212 0
108 102 222 0
108 -102 -222 0
-108 102 -222 0
-108 -102 222 0
109 102 268 0
109 -102 -268 0
-109 102 -268 0
-109 -102 268 0
110 102 286 0
110 -102 -286 0
-110 102 -286 0
-110 -102 286 0
111 102 293 0
111 -102 -293 0
-111 102 -293 0
-111 -102 293 0
112 102 301 0
112 -102 -301 0
-112 102 -301 0
-112 -102 301 0
113 102 311 0
113 -102 -311 0
-113 102 -311 0
-113 -102 311 0
114 102 340 0
114 -102 -340 0
-114 102 -340 0
-114 -102 340 0
115 102 376 0
115 -102 -376 0
-115 102 -376 0
-115 -102 376 0
116 102 417 0
116 -102 -417 0
-116 102 -417 0
-116 -102 417 0
117 102 422 0
117 -102 -422 0
-117 102 -422 0
-117 -102 422 0
118 102 425 0
118 -102 -425 0
-118 102 -425 0
-118 -102 425 0
119 102 428 0
119 -102 -428 0
-119 102 -428 0
-119 -102 428 0
120 102 432 0
120 -102 -432 0
-120 102 -432 0
-120 -102 432 0
121 102 434 0
121 -102 -434 0
-121 102 -434 0
-121 -102 434 0
123 122 141 0
123 -122 -141 0
-123 122 -141 0
-123 -122 141 0
124 122 153 0
124 -122 -153 0
-124 122 -153 0
-124 -122 153 0
125 122 164 0
125 -122 -164 0
-125 122 -164 0
-125 -122 164 0
126 122 177 0
126 -122 -177 0
-126 122 -177 0
-126 -122 177 0
127 122 212 0
127 -122 -212 0
-127 122 -212 0
-127 -122 212 0
128 122 222 0
128 -122 -222 0
-128 122 -222 0
-128 -122 222 0
129 122 256 0
129 -122 -256 0
-129 122 -256 0
-129 -122 256 0
130 122 268 0
130 -122 -268 0
-130 122 -268 0
-130 -122 268 0
131 122 293 0
131 -122 -293 0
-131 122 -293 0
-131 -122 293 0
132 122 317 0
132 -122 -317 0
-132 122 -317 0
-132 -122 317 0
133 122 328 0
133 -122 -328 0
-133 122 -328 0
-133 -122 328 0
134 122 335 0
134 -122 -335 0
-134 122 -335 0
-134 -122 335 0
135 122 356 0
135 -122 -356 0
-135 122 -356 0
-135 -122 356 0
136 122 394 0
136 -122 -394 0
-136 122 -394 0
-136 -122 394 0
137 122 397 0
137 -122 -397 0
-137 122 -397 0
-137 -122 397 0
138 122 425 0
138 -122 -425 0
-138 122 -425 0
-138 -122 425 0
139 122 428 0
139 -122 -428 0
-139 122 -428 0
-139 -122 428 0
140 122 430 0
140 -122 -430 0
-140 122 -430 0
-140 -122 430 0
142 141 153 0
142 -141 -153 0
-142 141 -153 0
-142 -141 153 0
143 141 231 0
143 -141 -231 0
-143 141 -231 0
-143 -141 231 0
144 141 301 0
144 -141 -301 0
-144 141 -301 0
-144 -141 301 0
145 141 340 0
145 -141 -340 0
-145 141 -340 0
-145 -141 340 0
146 141 356 0
146 -141 -356 0
-146 141 -356 0
-146 -141 356 0
147 141 397 0
147 -141 -397 0
-147 141 -397 0
-147 -141 397 0
148 141 402 0
148 -141 -402 0
-148 141 -402 0
-148 -141 402 0
149 141 415 0
149 -141 -415 0
-149 141 -415 0
-149 -141 415 0
150 141 420 0
150 -141 -420 0
-150 141 -420 0
-150 -141 420 0
151 141 428 0
151 -141 -428 0
-151 141 -428 0
-151 -141 428 0
152 141 430 0
152 -141 -430 0
-152 141 -430 0
-152 -141 430 0
154 153 164 0
154 -153 -164 0
-154 153 -164 0
-154 -153 164 0
155 153 222 0
155 -153 -222 0
-155 153 -222 0
-155 -153 222 0
156 153 231 0
156 -153 -231 0
-156 153 -231 0
-156 -153 231 0
157 153 243 0
157 -153 -243 0
-157 153 -243 0
-157 -153 243 0
158 153 268 0
158 -153 -268 0
-158 153 -268 0
-158 -153 268 0
159 153 293 0
159 -153 -293 0
-159 153 -293 0
-159 -153 293 0
160 153 376 0
160 -153 -376 0
-160 153 -376 0
-160 -153 376 0
161 153 388 0
161 -153 -388 0
-161 153 -388 0
-161 -153 388 0
162 153 397 0
162 -153 -397 0
-162 153 -397 0
-162 -153 397 0
163 153 407 0
163 -153 -407 0
-163 153 -407 0
-163 -153 407 0
165 164 177 0
165 -164 -177 0
-165 164 -177 0
-165 -164 177 0
166 164 256 0
166 -164 -256 0
-166 164 -256 0
-166 -164 256 0
167 164 286 0
167 -164 -286 0
-167 164 -286 0
-167 -164 286 0
168 164 335 0
168 -164 -335 0
-168 164 -335 0
-168 -164 335 0
169 164 369 0
169 -164 -369 0
-169 164 -369 0
-169 -164 369 0
170 164 376 0
170 -164 -376 0
-170 164 -376 0
-170 -164 376 0
171 164 381 0
171 -164 -381 0
-171 164 -381 0
-171 -164 381 0
172 164 415 0
172 -164 -415 0
-172 164 -415 0
-172 -164 415 0
173 164 417 0
173 -164 -417 0
-173 164 -417 0
-173 -164 417 0
174 164 420 0
174 -164 -420 0
-174 164 -420 0
-174 -164 420 0
175 164 430 0
175 -164 -430 0
-175 164 -430 0
-175 -164 430 0
176 164 432 0
176 -164 -432 0
-176 164 -432 0
-176 -164 432 0
178 177 198 0
178 -177 -198 0
-178 177 -198 0
-178 -177 198 0
179 177 256 0
179 -177 -256 0
-179 177 -256 0
-179 -177 256 0
180 177 293 0
180 -177 -293 0
-180 177 -293 0
-180 -177 293 0
181 177 328 0
181 -177 -328 0
-181 177 -328 0
-181 -177 328 0
182 177 340 0
182 -177 -340 0
-182 177 -340 0
-182 -177 340 0
183 177 346 0
183 -177 -346 0
-183 177 -346 0
-183 -177 346 0
184 177 356 0
184 -177 -356 0
-184 177 -356 0
-184 -177 356 0
185 177 369 0
185 -177 -369 0
-185 177 -369 0
-185 -177 369 0
186 177 397 0
186 -177 -397 0
-186 177 -397 0
-186 -177 397 0
187 177 417 0
187 -177 -417 0
-187 177 -417 0
-187 -177 417 0
188 177 422 0
188 -177 -422 0
-188 177 -422 0
-188 -177 422 0
189 177 428 0
189 -177 -428 0
-189 177 -428 0
-189 -177 428 0
190 177 430 0
190 -177 -430 0
-190 177 -430 0
-190 -177 430 0
191 177 432 0
191 -177 -432 0
-191 177 -432 0
-191 -177 432 0
193 192 286 0
193 -192 -286 0
-193 192 -286 0
-193 -192 286 0
194 192 328 0
194 -192 -328 0
-194 192 -328 0
-194 -192 328 0
195 192 394 0
195 -192 -394 0
-195 192 -394 0
-195 -192 394 0
196 192 397 0
196 -192 -397 0
-196 192 -397 0
-196 -192 397 0
197 192 402 0
197 -192 -402 0
-197 192 -402 0
-197 -192 402 0
199 198 231 0
199 -198 -231 0
-199 198 -231 0
-199 -198 231 0
200 198 243 0
200 -198 -243 0
-200 198 -243 0
-200 -198 243 0
201 198 256 0
201 -198 -256 0
-201 198 -256 0
-201 -198 256 0
202 198 268 0
202 -198 -268 0
-202 198 -268 0
-202 -198 268 0
203 198 293 0
203 -198 -293 0
-203 198 -293 0
-203 -198 293 0
204 198 317 0
204 -198 -317 0
-204 198 -317 0
-204 -198 317 0
205 198 328 0
205 -198 -328 0
-205 198 -328 0
-205 -198 328 0
206 198 356 0
206 -198 -356 0
-206 198 -356 0
-206 -198 356 0
207 198 369 0
207 -198 -369 0
-207 198 -369 0
-207 -198 369 0
208 198 376 0
208 -198 -376 0
-208 198 -376 0
-208 -198 376 0
209 198 407 0
209 -198 -407 0
-209 198 -407 0
-209 -198 407 0
210 198 430 0
210 -198 -430 0
-210 198 -430 0
-210 -198 430 0
211 198 434 0
211 -198 -434 0
-211 198 -434 0
-211 -198 434 0
213 212 222 0
213 -212 -222 0
-213 212 -222 0
-213 -212 222 0
214 212 293 0
214 -212 -293 0
-214 212 -293 0
-214 -212 293 0
215 212 311 0
215 -212 -311 0
-215 212 -311 0
-215 -212 311 0
216 212 369 0
216 -212 -369 0
-216 212 -369 0
-216 -212 369 0
217 212 376 0
217 -212 -376 0
-217 212 -376 0
-217 -212 376 0
218 212 388 0
218 -212 -388 0
-218 212 -388 0
-218 -212 388 0
219 212 425 0
219 -212 -425 0
-219 212 -425 0
-219 -212 425 0
220 212 430 0
220 -212 -430 0
-220 212 -430 0
-220 -212 430 0
221 212 432 0
221 -212 -432 0
-221 212 -432 0
-221 -212 432 0
223 222 231 0
223 -222 -231 0
-223 222 -231 0
-223 -222 231 0
224 222 278 0
224 -222 -278 0
-224 222 -278 0
-224 -222 278 0
225 222 286 0
225 -222 -286 0
-225 222 -286 0
-225 -222 286 0
226 222 328 0
226 -222 -328 0
-226 222 -328 0
-226 -222 328 0
227 222 356 0
227 -222 -356 0
-227 222 -356 0
-227 -222 356 0
228 222 397 0
228 -222 -397 0
-228 222 -397 0
-228 -222 397 0
229 222 415 0
229 -222 -415 0
-229 222 -415 0
-229 -222 415 0
230 222 430 0
230 -222 -430 0
-230 222 -430 0
-230 -222 430 0
232 231 278 0
232 -231 -278 0
-232 231 -278 0
-232 -231 278 0
233 231 286 0
233 -231 -286 0
-233 231 -286 0
-233 -231 286 0
234 231 317 0
234 -231 -317 0
-234 231 -317 0
-234 -231 317 0
235 231 381 0
235 -231 -381 0
-235 231 -381 0
-235 -231 381 0
236 231 397 0
236 -231 -397 0
-236 231 -397 0
-236 -231 397 0
237 231 402 0
237 -231 -402 0
-237 231 -402 0
-237 -231 402 0
238 231 407 0
238 -231 -407 0
-238 231 -407 0
-238 -231 407 0
239 231 417 0
239 -231 -417 0
-239 231 -417 0
-239 -231 417 0
240 231 420 0
240 -231 -420 0
-240 231 -420 0
-240 -231 420 0
241 231 430 0
241 -231 -430 0
-241 231 -430 0
-241 -231 430 0
242 231 434 0
242 -231 -434 0
-242 231 -434 0
-242 -231 434 0
244 243 268 0
244 -243 -268 0
-244 243 -268 0
-244 -243 268 0
245 243 278 0
245 -243 -278 0
-245 243 -278 0
-245 -243 278 0
246 243 301 0
246 -243 -301 0
-246 243 -301 0
-246 -243 301 0
247 243 317 0
247 -243 -317 0
-247 243 -317 0
-247 -243 317 0
248 243 335 0
248 -243 -335 0
-248 243 -335 0
-248 -243 335 0
249 243 369 0
249 -243 -369 0
-249 243 -369 0
-249 -243 369 0
250 243 381 0
250 -243 -381 0
-250 243 -381 0
-250 -243 381 0
251 243 394 0
251 -243 -394 0
-251 243 -394 0
-251 -243 394 0
252 243 397 0
252 -243 -397 0
-252 243 -397 0
-252 -243 397 0
253 243 415 0
253 -243 -415 0
-253 243 -415 0
-253 -243 415 0
254 243 425 0
254 -243 -425 0
-254 243 -425 0
-254 -243 425 0
255 243 432 0
255 -243 -432 0
-255 243 -432 0
-255 -243 432 0
257 256 278 0
257 -256 -278 0
-257 256 -278 0
-257 -256 278 0
258 256 317 0
258 -256 -317 0
-258 256 -317 0
-258 -256 317 0
259 256 335 0
259 -256 -335 0
-259 256 -335 0
-259 -256 335 0
260 256 346 0
260 -256 -346 0
-260 256 -346 0
-260 -256 346 0
261 256 356 0
261 -256 -356 0
-261 256 -356 0
-261 -256 356 0
262 256 369 0
262 -256 -369 0
-262 256 -369 0
-262 -256 369 0
263 256 394 0
263 -256 -394 0
-263 256 -394 0
-263 -256 394 0
264 256 420 0
264 -256 -420 0
-264 256 -420 0
-264 -256 420 0
265 256 422 0
265 -256 -422 0
-265 256 -422 0
-265 -256 422 0
266 256 428 0
266 -256 -428 0
-266 256 -428 0
-266 -256 428 0
267 256 430 0
267 -256 -430 0
-267 256 -430 0
-267 -256 430 0
269 268 278 0
269 -268 -278 0
-269 268 -278 0
-269 -268 278 0
270 268 301 0
270 -268 -301 0
-270 268 -301 0
-270 -268 301 0
271 268 340 0
271 -268 -340 0
-271 268 -340 0
-271 -268 340 0
272 268 346 0
272 -268 -346 0
-272 268 -346 0
-272 -268 346 0
273 268 394 0
273 -268 -394 0
-273 268 -394 0
-273 -268 394 0
274 268 420 0
274 -268 -420 0
-274 268 -420 0
-274 -268 420 0
275 268 425 0
275 -268 -425 0
-275 268 -425 0
-275 -268 425 0
276 268 428 0
276 -268 -428 0
-276 268 -428 0
-276 -268 428 0
277 268 430 0
277 -268 -430 0
-277 268 -430 0
-277 -268 430 0
279 278 286 0
279 -278 -286 0
-279 278 -286 0
-279 -278 286 0
280 278 317 0
280 -278 -317 0
-280 278 -317 0
-280 -278 317 0
281 278 388 0
281 -278 -388 0
-281 278 -388 0
-281 -278 388 0
282 278 397 0
282 -278 -397 0
-282 278 -397 0
-282 -278 397 0
283 278 412 0
283 -278 -412 0
-283 278 -412 0
-283 -278 412 0
284 278 415 0
284 -278 -415 0
-284 278 -415 0
-284 -278 415 0
285 278 420 0
285 -278 -420 0
-285 278 -420 0
-285 -278 420 0
287 286 346 0
287 -286 -346 0
-287 286 -346 0
-287 -286 346 0
288 286 356 0
288 -286 -356 0
-288 286 -356 0
-288 -286 356 0
289 286 369 0
289 -286 -369 0
-289 286 -369 0
-289 -286 369 0
290 286 376 0
290 -286 -376 0
-290 286 -376 0
-290 -286 376 0
291 286 381 0
291 -286 -381 0
-291 286 -381 0
-291 -286 381 0
292 286 388 0
292 -286 -388 0
-292 286 -388 0
-292 -286 388 0
294 293 340 0
294 -293 -340 0
-294 293 -340 0
-294 -293 340 0
295 293 356 0
295 -293 -356 0
-295 293 -356 0
-295 -293 356 0
296 293 388 0
296 -293 -388 0
-296 293 -388 0
-296 -293 388 0
297 293 394 0
297 -293 -394 0
-297 293 -394 0
-297 -293 394 0
298 293 422 0
298 -293 -422 0
-298 293 -422 0
-298 -293 422 0
299 293 425 0
299 -293 -425 0
-299 293 -425 0
-299 -293 425 0
300 293 432 0
300 -293 -432 0
-300 293 -432 0
-300 -293 432 0
302 301 340 0
302 -301 -340 0
-302 301 -340 0
-302 -301 340 0
303 301 369 0
303 -301 -369 0
-303 301 -369 0
-303 -301 369 0
304 301 376 0
304 -301 -376 0
-304 301 -376 0
-304 -301 376 0
305 301 381 0
305 -301 -381 0
-305 301 -381 0
-305 -301 381 0
306 301 397 0
306 -301 -397 0
-306 301 -397 0
-306 -301 397 0
307 301 402 0
307 -301 -402 0
-307 301 -402 0
-307 -301 402 0
308 301 407 0
308 -301 -407 0
-308 301 -407 0
-308 -301 407 0
309 301 417 0
309 -301 -417 0
-309 301 -417 0
-309 -301 417 0
310 301 432 0
310 -301 -432 0
-310 301 -432 0
-310 -301 432 0
312 311 328 0
312 -311 -328 0
-312 311 -328 0
-312 -311 328 0
313 311 356 0
313 -311 -356 0
-313 311 -356 0
-313 -311 356 0
314 311 381 0
314 -311 -381 0
-314 311 -381 0
-314 -311 381 0
315 311 430 0
315 -311 -430 0
-315 311 -430 0
-315 -311 430 0
316 311 432 0
316 -311 -432 0
-316 311 -432 0
-316 -311 432 0
318 317 328 0
318 -317 -328 0
-318 317 -328 0
-318 -317 328 0
319 317 335 0
319 -317 -335 0
-319 317 -335 0
-319 -317 335 0
320 317 340 0
320 -317 -340 0
-320 317 -340 0
-320 -317 340 0
321 317 356 0
321 -317 -356 0
-321 317 -356 0
-321 -317 356 0
322 317 369 0
322 -317 -369 0
-322 317 -369 0
-322 -317 369 0
323 317 394 0
323 -317 -394 0
-323 317 -394 0
-323 -317 394 0
324 317 402 0
324 -317 -402 0
-324 317 -402 0
-324 -317 402 0
325 317 412 0
325 -317 -412 0
-325 317 -412 0
-325 -317 412 0
326 317 420 0
326 -317 -420 0
-326 317 -420 0
-326 -317 420 0
327 317 425 0
327 -317 -425 0
-327 317 -425 0
-327 -317 425 0
329 328 356 0
329 -328 -356 0
-329 328 -356 0
-329 -328 356 0
330 328 388 0
330 -328 -388 0
-330 328 -388 0
-330 -328 388 0
331 328 402 0
331 -328 -402 0
-331 328 -402 0
-331 -328 402 0
332 328 417 0
332 -328 -417 0
-332 328 -417 0
-332 -328 417 0
333 328 425 0
333 -328 -425 0
-333 328 -425 0
-333 -328 425 0
334 328 434 0
334 -328 -434 0
-334 328 -434 0
-334 -328 434 0
336 335 340 0
336 -335 -340 0
-336 335 -340 0
-336 -335 340 0
337 335 356 0
337 -335 -356 0
-337 335 -356 0
-337 -335 356 0
338 335 388 0
338 -335 -388 0
-338 335 -388 0
-338 -335 388 0
339 335 422 0
339 -335 -422 0
-339 335 -422 0
-339 -335 422 0
341 340 381 0
341 -340 -381 0
-341 340 -381 0
-341 -340 381 0
342 340 394 0
342 -340 -394 0
-342 340 -394 0
-342 -340 394 0
343 340 412 0
343 -340 -412 0
-343 340 -412 0
-343 -340 412 0
344 340 415 0
344 -340 -415 0
-344 340 -415 0
-344 -340 415 0
345 340 425 0
345 -340 -425 0
-345 340 -425 0
-345 -340 425 0
347 346 356 0
347 -346 -356 0
-347 346 -356 0
-347 -346 356 0
348 346 376 0
348 -346 -376 0
-348 346 -376 0
-348 -346 376 0
349 346 381 0
349 -346 -381 0
-349 346 -381 0
-349 -346 381 0
350 346 388 0
350 -346 -388 0
-350 346 -388 0
-350 -346 388 0
351 346 394 0
351 -346 -394 0
-351 346 -394 0
-351 -346 394 0
352 346 397 0
352 -346 -397 0
-352 346 -397 0
-352 -346 397 0
353 346 417 0
353 -346 -417 0
-353 346 -417 0
-353 -346 417 0
354 346 430 0
354 -346 -430 0
-354 346 -430 0
-354 -346 430 0
355 346 432 0
355 -346 -432 0
-355 346 -432 0
-355 -346 432 0
357 356 369 0
357 -356 -369 0
-357 356 -369 0
-357 -356 369 0
358 356 376 0
358 -356 -376 0
-358 356 -376 0
-358 -356 376 0
359 356 394 0
359 -356 -394 0
-359 356 -394 0
-359 -356 394 0
360 356 397 0
360 -356 -397 0
-360 356 -397 0
-360 -356 397 0
361 356 412 0
361 -356 -412 0
-361 356 -412 0
-361 -356 412 0
362 356 415 0
362 -356 -415 0
-362 356 -415 0
-362 -356 415 0
363 356 417 0
363 -356 -417 0
-363 356 -417 0
-363 -356 417 0
364 356 420 0
364 -356 -420 0
-364 356 -420 0
-364 -356 420 0
365 356 425 0
365 -356 -425 0
-365 356 -425 0
-365 -356 425 0
366 356 428 0
366 -356 -428 0
-366 356 -428 0
-366 -356 428 0
367 356 430 0
367 -356 -430 0
-367 356 -430 0
-367 -356 430 0
368 356 432 0
368 -356 -432 0
-368 356 -432 0
-368 -356 432 0
370 369 381 0
370 -369 -381 0
-370 369 -381 0
-370 -369 381 0
371 369 388 0
371 -369 -388 0
-371 369 -388 0
-371 -369 388 0
372 369 402 0
372 -369 -402 0
-372 369 -402 0
-372 -369 402 0
373 369 415 0
373 -369 -415 0
-373 369 -415 0
-373 -369 415 0
374 369 420 0
374 -369 -420 0
-374 369 -420 0
-374 -369 420 0
375 369 422 0
375 -369 -422 0
-375 369 -422 0
-375 -369 422 0
377 376 388 0
377 -376 -388 0
-377 376 -388 0
-377 -376 388 0
378 376 417 0
378 -376 -417 0
-378 376 -417 0
-378 -376 417 0
379 376 422 0
379 -376 -422 0
-379 376 -422 0
-379 -376 422 0
380 376 425 0
380 -376 -425 0
-380 376 -425 0
-380 -376 425 0
382 381 402 0
382 -381 -402 0
-382 381 -402 0
-382 -381 402 0
383 381 407 0
383 -381 -407 0
-383 381 -407 0
-383 -381 407 0
384 381 417 0
384 -381 -417 0
-384 381 -417 0
-384 -381 417 0
385 381 420 0
385 -381 -420 0
-385 381 -420 0
-385 -381 420 0
386 381 425 0
386 -381 -425 0
-386 381 -425 0
-386 -381 425 0
387 381 434 0
387 -381 -434 0
-387 381 -434 0
-387 -381 434 0
389 388 397 0
389 -388 -397 0
-389 388 -397 0
-389 -388 397 0
390 388 412 0
390 -388 -412 0
-390 388 -412 0
-390 -388 412 0
391 388 417 0
391 -388 -417 0
-391 388 -417 0
-391 -388 417 0
392 388 425 0
392 -388 -425 0
-392 388 -425 0
-392 -388 425 0
393 388 434 0
393 -388 -434 0
-393 388 -434 0
-393 -388 434 0
395 394 412 0
395 -394 -412 0
-395 394 -412 0
-395 -394 412 0
396 394 420 0
396 -394 -420 0
-396 394 -420 0
-396 -394 420 0
398 397 420 0
398 -397 -420 0
-398 397 -420 0
-398 -397 420 0
399 397 422 0
399 -397 -422 0
-399 397 -422 0
-399 -397 422 0
400 397 425 0
400 -397 -425 0
-400 397 -425 0
-400 -397 425 0
401 397 428 0
401 -397 -428 0
-401 397 -428 0
-401 -397 428 0
403 402 417 0
403 -402 -417 0
-403 402 -417 0
-403 -402 417 0
404 402 420 0
404 -402 -420 0
-404 402 -420 0
-404 -402 420 0
405 402 425 0
405 -402 -425 0
-405 402 -425 0
-405 -402 425 0
406 402 428 0
406 -402 -428 0
-406 402 -428 0
-406 -402 428 0
408 407 412 0
408 -407 -412 0
-408 407 -412 0
-408 -407 412 0
409 407 420 0
409 -407 -420 0
-409 407 -420 0
-409 -407 420 0
410 407 428 0
410 -407 -428 0
-410 407 -428 0
-410 -407 428 0
411 407 432 0
411 -407 -432 0
-411 407 -432 0
-411 -407 432 0
413 412 415 0
413 -412 -415 0
-413 412 -415 0
-413 -412 415 0
414 412 422 0
414 -412 -422 0
-414 412 -422 0
-414 -412 422 0
416 415 422 0
416 -415 -422 0
-416 415 -422 0
-416 -415 422 0
418 417 428 0
418 -417 -428 0
-418 417 -428 0
-418 -417 428 0
419 417 432 0
419 -417 -432 0
-419 417 -432 0
-419 -417 432 0
421 420 422 0
421 -420 -422 0
-421 420 -422 0
-421 -420 422 0
423 422 425 0
423 -422 -425 0
-423 422 -425 0
-423 -422 425 0
424 422 430 0
424 -422 -430 0
-424 422 -430 0
-424 -422 430 0
426 425 430 0
426 -425 -430 0
-426 425 -430 0
-426 -425 430 0
427 425 432 0
427 -425 -432 0
-427 425 -432 0
-427 -425 432 0
429 428 432 0
429 -428 -432 0
-429 428 -432 0
-429 -428 432 0
431 430 432 0
431 -430 -432 0
-431 430 -432 0
-431 -430 432 0
433 432 434 0
433 -432 -434 0
-433 432 -434 0
-433 -432 434 0
